NAME: CMT5_4
TYPE: CVRP
COMMENT: 1291.29 - Cluster Nr.4
DIMENSION: 9
CAPACITY: 200
EDGE_WEIGHT_TYPE: EUC_2D
NODE_COORD_TYPE: TWOD_COORDS
NODE_COORD_SECTION: 
6 52 64
2 55 65
9 62 63
8 62 77
5 57 68
7 49 73
1 63 69
3 35 35
4 63 65
DEPOT_SECTION: 
3
-1
DEMAND_SECTION: 
5 15
3 0
1 6
4 8
8 20
7 25
9 17
6 16
2 37
EOF
